p tw 130 300
0 1
0 2
0 21
0 77
1 2
1 8
1 121
2 12
2 13
2 16
2 17
2 18
2 19
2 59
2 60
2 99
2 100
2 87
2 92
2 31
2 106
2 95
2 102
2 3
2 110
2 107
2 119
2 125
2 126
3 4
3 5
3 110
4 5
4 26
4 27
5 14
5 28
5 52
5 53
5 70
5 71
5 20
5 75
5 85
5 86
5 9
5 103
5 45
5 122
5 7
5 37
5 84
5 124
5 72
5 118
6 7
6 8
7 8
7 37
8 14
8 15
8 50
8 65
8 33
8 74
8 67
8 82
8 58
8 93
8 101
8 102
8 38
8 79
8 16
8 90
8 22
8 114
8 34
8 115
8 121
8 10
8 127
8 83
8 109
8 111
8 113
9 10
9 11
9 103
10 11
10 127
11 36
11 49
11 50
11 51
11 77
11 78
11 12
11 113
11 39
11 123
11 63
11 101
12 13
12 113
13 21
13 46
14 15
14 28
15 27
15 108
16 17
16 90
18 19
19 40
19 94
20 21
20 22
20 75
21 22
21 46
21 26
21 54
21 55
21 56
21 66
21 67
21 35
21 41
21 72
21 73
21 87
21 88
21 47
21 91
21 77
21 69
21 120
21 28
21 125
22 114
23 24
23 25
24 25
24 36
24 37
24 61
24 62
24 30
24 66
24 79
24 80
24 44
24 97
24 56
24 109
24 111
24 112
24 68
24 105
25 43
25 104
26 27
26 54
27 32
27 33
27 34
27 35
27 89
27 90
27 108
27 53
27 62
27 116
27 117
27 78
27 129
28 125
29 30
29 31
29 47
29 48
29 63
29 64
29 68
29 69
29 49
29 76
29 42
29 81
29 60
29 75
29 92
29 93
29 97
29 100
29 51
29 94
29 110
29 128
30 31
30 66
31 106
32 33
32 43
32 118
33 74
34 35
34 115
35 41
36 37
36 49
38 39
38 40
38 79
39 40
39 123
40 41
40 42
40 57
40 58
40 83
40 84
40 94
40 61
40 107
40 91
40 104
40 85
40 89
41 42
42 81
43 44
43 45
43 95
43 96
43 80
43 98
43 104
43 71
43 105
43 118
43 103
43 116
44 45
44 97
45 122
47 48
47 91
49 76
50 51
50 65
51 94
52 53
53 62
55 56
56 109
57 58
58 93
59 60
60 75
61 62
61 107
63 64
63 101
66 67
67 82
68 69
68 105
69 120
70 71
71 105
72 73
72 118
77 78
78 129
79 80
80 98
83 84
83 109
84 124
85 86
85 89
87 88
87 92
89 90
91 104
92 93
95 96
95 102
97 100
99 100
101 102
103 116
107 119
110 128
111 112
111 113
116 117
125 126
